
  22   10
  10   10   10   10   10   10   10   10   10   10

   0   0   0   0   0   0   0   0   0   0   0   2 2 8 
   8  10  10  10  10  10  10  10  10  10  10   1 3 
   8  10  10  10  10  10  10  10  10  10  10   2 21 4 
   7  10  10  10  10  10  10  10  10  10  10   1 5 
   2  10  10  10  10  10  10  10  10  10  10   1 6 
   2  10  10  10  10  10  10  10  10  10  10   3 20 19 7 
   6  10  10  10  10  10  10  10  10  10  10   1 9 
   2  10  10  10  10  10  10  10  10  10  10   1 9 
  10  10  10  10  10  10  10  10  10  10  10   1 10 
   1  10  10  10  10  10  10  10  10  10  10   3 18 17 11 
   3  10  10  10  10  10  10  10  10  10  10   1 12 
   5  10  10  10  10  10  10  10  10  10  10   1 13 
   3  10  10  10  10  10  10  10  10  10  10   1 14 
   5  10  10  10  10  10  10  10  10  10  10   1 15 
   6  10  10  10  10  10  10  10  10  10  10   1 16 
   1  10  10  10  10  10  10  10  10  10  10   1 22
   9  10  10  10  10  10  10  10  10  10  10   1 22
   6  10  10  10  10  10  10  10  10  10  10   1 22
   1  10  10  10  10  10  10  10  10  10  10   1 22
   2  10  10  10  10  10  10  10  10  10  10   1 22
   4  10  10  10  10  10  10  10  10  10  10   1 22
   0   0   0   0   0   0   0   0   0   0   0   0 
